
;this file is automatically generated: Tue Mar 02 15:25:48 CST 2021

;declarations generated

(declare-fun oclExcludes ( Int Int) Bool)
(declare-fun Cardinality ( Int) Int)
(declare-fun type_35cb9ccb_a7a0_41c8_93cb_a0fd9a60e802_Class1 ( Int) Bool)
(declare-fun type_35cb9ccb_a7a0_41c8_93cb_a0fd9a60e802_Class0 ( Int) Bool)
(declare-fun type_35cb9ccb_a7a0_41c8_93cb_a0fd9a60e802_Class3 ( Int) Bool)
(declare-fun type_35cb9ccb_a7a0_41c8_93cb_a0fd9a60e802_Class2 ( Int) Bool)
(declare-fun type_35cb9ccb_a7a0_41c8_93cb_a0fd9a60e802_Class5 ( Int) Bool)
(declare-fun type_35cb9ccb_a7a0_41c8_93cb_a0fd9a60e802_Class4 ( Int) Bool)
(declare-fun type_35cb9ccb_a7a0_41c8_93cb_a0fd9a60e802_Class7 ( Int) Bool)
(declare-fun type_35cb9ccb_a7a0_41c8_93cb_a0fd9a60e802_Class6 ( Int) Bool)
(declare-fun type_35cb9ccb_a7a0_41c8_93cb_a0fd9a60e802_Class9 ( Int) Bool)
(declare-fun type_35cb9ccb_a7a0_41c8_93cb_a0fd9a60e802_Class8 ( Int) Bool)
(declare-fun type_35cb9ccb_a7a0_41c8_93cb_a0fd9a60e802_Class55 ( Int) Bool)
(declare-fun oclSelect ( Int Bool) Int)
(declare-fun type_35cb9ccb_a7a0_41c8_93cb_a0fd9a60e802_Class32 ( Int) Bool)
(declare-fun type_35cb9ccb_a7a0_41c8_93cb_a0fd9a60e802_Class31 ( Int) Bool)
(declare-fun type_35cb9ccb_a7a0_41c8_93cb_a0fd9a60e802_Class30 ( Int) Bool)
(declare-fun type_35cb9ccb_a7a0_41c8_93cb_a0fd9a60e802_Class29 ( Int) Bool)
(declare-fun type_35cb9ccb_a7a0_41c8_93cb_a0fd9a60e802_Class28 ( Int) Bool)
(declare-fun type_35cb9ccb_a7a0_41c8_93cb_a0fd9a60e802_Class27 ( Int) Bool)
(declare-fun type_35cb9ccb_a7a0_41c8_93cb_a0fd9a60e802_Class26 ( Int) Bool)
(declare-fun type_35cb9ccb_a7a0_41c8_93cb_a0fd9a60e802_Class25 ( Int) Bool)
(declare-fun type_35cb9ccb_a7a0_41c8_93cb_a0fd9a60e802_Class24 ( Int) Bool)
(declare-fun type_35cb9ccb_a7a0_41c8_93cb_a0fd9a60e802_Class23 ( Int) Bool)
(declare-fun obj_afc25763_509a_4d96_b6f3_5672f254105d ( Int) Int)
(declare-fun type_35cb9ccb_a7a0_41c8_93cb_a0fd9a60e802_Class22 ( Int) Bool)
(declare-fun type_35cb9ccb_a7a0_41c8_93cb_a0fd9a60e802_Class21 ( Int) Bool)
(declare-fun type_35cb9ccb_a7a0_41c8_93cb_a0fd9a60e802_Class20 ( Int) Bool)
(declare-fun type_35cb9ccb_a7a0_41c8_93cb_a0fd9a60e802_Class18 ( Int) Bool)
(declare-fun type_35cb9ccb_a7a0_41c8_93cb_a0fd9a60e802_Class17 ( Int) Bool)
(declare-fun type_35cb9ccb_a7a0_41c8_93cb_a0fd9a60e802_Class16 ( Int) Bool)
(declare-fun type_35cb9ccb_a7a0_41c8_93cb_a0fd9a60e802_Class15 ( Int) Bool)
(declare-fun type_35cb9ccb_a7a0_41c8_93cb_a0fd9a60e802_Class14 ( Int) Bool)
(declare-fun type_35cb9ccb_a7a0_41c8_93cb_a0fd9a60e802_Class13 ( Int) Bool)
(declare-fun type_35cb9ccb_a7a0_41c8_93cb_a0fd9a60e802_Class12 ( Int) Bool)
(declare-fun type_35cb9ccb_a7a0_41c8_93cb_a0fd9a60e802_Class11 ( Int) Bool)
(declare-fun type_35cb9ccb_a7a0_41c8_93cb_a0fd9a60e802_Class19 ( Int) Bool)
(declare-fun type_35cb9ccb_a7a0_41c8_93cb_a0fd9a60e802_Class54 ( Int) Bool)
(declare-fun type_35cb9ccb_a7a0_41c8_93cb_a0fd9a60e802_Class53 ( Int) Bool)
(declare-fun type_35cb9ccb_a7a0_41c8_93cb_a0fd9a60e802_Class52 ( Int) Bool)
(declare-fun type_35cb9ccb_a7a0_41c8_93cb_a0fd9a60e802_Class51 ( Int) Bool)
(declare-fun type_35cb9ccb_a7a0_41c8_93cb_a0fd9a60e802_Class50 ( Int) Bool)
(declare-fun type_35cb9ccb_a7a0_41c8_93cb_a0fd9a60e802_Class49 ( Int) Bool)
(declare-fun type_35cb9ccb_a7a0_41c8_93cb_a0fd9a60e802_Class48 ( Int) Bool)
(declare-fun type_35cb9ccb_a7a0_41c8_93cb_a0fd9a60e802_Class47 ( Int) Bool)
(declare-fun type_35cb9ccb_a7a0_41c8_93cb_a0fd9a60e802_Class46 ( Int) Bool)
(declare-fun type_35cb9ccb_a7a0_41c8_93cb_a0fd9a60e802_Class45 ( Int) Bool)
(declare-fun type_35cb9ccb_a7a0_41c8_93cb_a0fd9a60e802_Class44 ( Int) Bool)
(declare-fun type_35cb9ccb_a7a0_41c8_93cb_a0fd9a60e802_Class43 ( Int) Bool)
(declare-fun type_35cb9ccb_a7a0_41c8_93cb_a0fd9a60e802_Class42 ( Int) Bool)
(declare-fun type_35cb9ccb_a7a0_41c8_93cb_a0fd9a60e802_Class41 ( Int) Bool)
(declare-fun type_35cb9ccb_a7a0_41c8_93cb_a0fd9a60e802_Class40 ( Int) Bool)
(declare-fun type_35cb9ccb_a7a0_41c8_93cb_a0fd9a60e802_Class39 ( Int) Bool)
(declare-fun type_35cb9ccb_a7a0_41c8_93cb_a0fd9a60e802_Class38 ( Int) Bool)
(declare-fun type_35cb9ccb_a7a0_41c8_93cb_a0fd9a60e802_Class37 ( Int) Bool)
(declare-fun type_35cb9ccb_a7a0_41c8_93cb_a0fd9a60e802_Class36 ( Int) Bool)
(declare-fun type_35cb9ccb_a7a0_41c8_93cb_a0fd9a60e802_Class35 ( Int) Bool)
(declare-fun type_35cb9ccb_a7a0_41c8_93cb_a0fd9a60e802_Class34 ( Int) Bool)
(declare-fun type_35cb9ccb_a7a0_41c8_93cb_a0fd9a60e802_Class33 ( Int) Bool)
(declare-fun Enum0 ( Int) Int)
(declare-fun Enum1 ( Int) Int)
(declare-fun Enum2 ( Int) Int)
(declare-fun type_35cb9ccb_a7a0_41c8_93cb_a0fd9a60e802_Class10 ( Int) Bool)
(declare-fun container_ ( Int) Int)
(declare-fun class25_Class25BoolAttr0 ( Int) Bool)
(declare-fun class25_Class25BoolAttr1 ( Int) Bool)
(declare-fun oclIncludes ( Int Int) Bool)
(declare-fun ObjAt ( Int Int) Int)

;formula(s) generated
(assert (! (or (forall ((v Int)) (=> (and ( type_35cb9ccb_a7a0_41c8_93cb_a0fd9a60e802_Class25 v )  ( type_35cb9ccb_a7a0_41c8_93cb_a0fd9a60e802_Class39 v ) ) ( class25_Class25BoolAttr1 ( obj_afc25763_509a_4d96_b6f3_5672f254105d v )  ) )) (forall ((v Int)) (=> (and ( type_35cb9ccb_a7a0_41c8_93cb_a0fd9a60e802_Class25 v )  ( type_35cb9ccb_a7a0_41c8_93cb_a0fd9a60e802_Class39 v ) ) (and ( class25_Class25BoolAttr1 ( obj_afc25763_509a_4d96_b6f3_5672f254105d v )  )  (and (forall ((v Int)) (=> (and ( type_35cb9ccb_a7a0_41c8_93cb_a0fd9a60e802_Class25 v )  ( type_35cb9ccb_a7a0_41c8_93cb_a0fd9a60e802_Class39 v ) ) ( class25_Class25BoolAttr0 ( obj_afc25763_509a_4d96_b6f3_5672f254105d v )  ) )) (forall ((v Int)) (=> (and ( type_35cb9ccb_a7a0_41c8_93cb_a0fd9a60e802_Class25 v )  ( type_35cb9ccb_a7a0_41c8_93cb_a0fd9a60e802_Class39 v ) ) ( class25_Class25BoolAttr0 ( obj_afc25763_509a_4d96_b6f3_5672f254105d v )  ) ))))))):named l0))
(assert (! (exists ((o Int)) ( type_35cb9ccb_a7a0_41c8_93cb_a0fd9a60e802_Class0 ( obj_afc25763_509a_4d96_b6f3_5672f254105d o )  ) ):named c0))
(assert (! (exists ((o Int)) (and (and (and (and (and ( type_35cb9ccb_a7a0_41c8_93cb_a0fd9a60e802_Class1 ( obj_afc25763_509a_4d96_b6f3_5672f254105d o )  )  ( type_35cb9ccb_a7a0_41c8_93cb_a0fd9a60e802_Class45 ( obj_afc25763_509a_4d96_b6f3_5672f254105d o )  ) ) ( type_35cb9ccb_a7a0_41c8_93cb_a0fd9a60e802_Class12 ( obj_afc25763_509a_4d96_b6f3_5672f254105d o )  ) ) ( type_35cb9ccb_a7a0_41c8_93cb_a0fd9a60e802_Class33 ( obj_afc25763_509a_4d96_b6f3_5672f254105d o )  ) ) ( type_35cb9ccb_a7a0_41c8_93cb_a0fd9a60e802_Class22 ( obj_afc25763_509a_4d96_b6f3_5672f254105d o )  ) ) ( type_35cb9ccb_a7a0_41c8_93cb_a0fd9a60e802_Class39 ( obj_afc25763_509a_4d96_b6f3_5672f254105d o )  ) )):named c1))
(assert (! (exists ((o Int)) (and (and (and (and (and (and (and (and (and ( type_35cb9ccb_a7a0_41c8_93cb_a0fd9a60e802_Class10 ( obj_afc25763_509a_4d96_b6f3_5672f254105d o )  )  ( type_35cb9ccb_a7a0_41c8_93cb_a0fd9a60e802_Class45 ( obj_afc25763_509a_4d96_b6f3_5672f254105d o )  ) ) ( type_35cb9ccb_a7a0_41c8_93cb_a0fd9a60e802_Class12 ( obj_afc25763_509a_4d96_b6f3_5672f254105d o )  ) ) ( type_35cb9ccb_a7a0_41c8_93cb_a0fd9a60e802_Class55 ( obj_afc25763_509a_4d96_b6f3_5672f254105d o )  ) ) ( type_35cb9ccb_a7a0_41c8_93cb_a0fd9a60e802_Class33 ( obj_afc25763_509a_4d96_b6f3_5672f254105d o )  ) ) ( type_35cb9ccb_a7a0_41c8_93cb_a0fd9a60e802_Class22 ( obj_afc25763_509a_4d96_b6f3_5672f254105d o )  ) ) ( type_35cb9ccb_a7a0_41c8_93cb_a0fd9a60e802_Class29 ( obj_afc25763_509a_4d96_b6f3_5672f254105d o )  ) ) ( type_35cb9ccb_a7a0_41c8_93cb_a0fd9a60e802_Class39 ( obj_afc25763_509a_4d96_b6f3_5672f254105d o )  ) ) ( type_35cb9ccb_a7a0_41c8_93cb_a0fd9a60e802_Class50 ( obj_afc25763_509a_4d96_b6f3_5672f254105d o )  ) ) ( type_35cb9ccb_a7a0_41c8_93cb_a0fd9a60e802_Class41 ( obj_afc25763_509a_4d96_b6f3_5672f254105d o )  ) )):named c2))
(assert (! (exists ((o Int)) ( type_35cb9ccb_a7a0_41c8_93cb_a0fd9a60e802_Class11 ( obj_afc25763_509a_4d96_b6f3_5672f254105d o )  ) ):named c3))
(assert (! (exists ((o Int)) (and (and (and ( type_35cb9ccb_a7a0_41c8_93cb_a0fd9a60e802_Class12 ( obj_afc25763_509a_4d96_b6f3_5672f254105d o )  )  ( type_35cb9ccb_a7a0_41c8_93cb_a0fd9a60e802_Class33 ( obj_afc25763_509a_4d96_b6f3_5672f254105d o )  ) ) ( type_35cb9ccb_a7a0_41c8_93cb_a0fd9a60e802_Class22 ( obj_afc25763_509a_4d96_b6f3_5672f254105d o )  ) ) ( type_35cb9ccb_a7a0_41c8_93cb_a0fd9a60e802_Class39 ( obj_afc25763_509a_4d96_b6f3_5672f254105d o )  ) )):named c4))
(assert (! (exists ((o Int)) (and (and (and (and (and (and (and (and (and ( type_35cb9ccb_a7a0_41c8_93cb_a0fd9a60e802_Class13 ( obj_afc25763_509a_4d96_b6f3_5672f254105d o )  )  ( type_35cb9ccb_a7a0_41c8_93cb_a0fd9a60e802_Class45 ( obj_afc25763_509a_4d96_b6f3_5672f254105d o )  ) ) ( type_35cb9ccb_a7a0_41c8_93cb_a0fd9a60e802_Class12 ( obj_afc25763_509a_4d96_b6f3_5672f254105d o )  ) ) ( type_35cb9ccb_a7a0_41c8_93cb_a0fd9a60e802_Class55 ( obj_afc25763_509a_4d96_b6f3_5672f254105d o )  ) ) ( type_35cb9ccb_a7a0_41c8_93cb_a0fd9a60e802_Class33 ( obj_afc25763_509a_4d96_b6f3_5672f254105d o )  ) ) ( type_35cb9ccb_a7a0_41c8_93cb_a0fd9a60e802_Class22 ( obj_afc25763_509a_4d96_b6f3_5672f254105d o )  ) ) ( type_35cb9ccb_a7a0_41c8_93cb_a0fd9a60e802_Class29 ( obj_afc25763_509a_4d96_b6f3_5672f254105d o )  ) ) ( type_35cb9ccb_a7a0_41c8_93cb_a0fd9a60e802_Class39 ( obj_afc25763_509a_4d96_b6f3_5672f254105d o )  ) ) ( type_35cb9ccb_a7a0_41c8_93cb_a0fd9a60e802_Class50 ( obj_afc25763_509a_4d96_b6f3_5672f254105d o )  ) ) ( type_35cb9ccb_a7a0_41c8_93cb_a0fd9a60e802_Class41 ( obj_afc25763_509a_4d96_b6f3_5672f254105d o )  ) )):named c5))
(assert (! (exists ((o Int)) (and (and (and (and (and (and (and (and (and ( type_35cb9ccb_a7a0_41c8_93cb_a0fd9a60e802_Class14 ( obj_afc25763_509a_4d96_b6f3_5672f254105d o )  )  ( type_35cb9ccb_a7a0_41c8_93cb_a0fd9a60e802_Class45 ( obj_afc25763_509a_4d96_b6f3_5672f254105d o )  ) ) ( type_35cb9ccb_a7a0_41c8_93cb_a0fd9a60e802_Class12 ( obj_afc25763_509a_4d96_b6f3_5672f254105d o )  ) ) ( type_35cb9ccb_a7a0_41c8_93cb_a0fd9a60e802_Class55 ( obj_afc25763_509a_4d96_b6f3_5672f254105d o )  ) ) ( type_35cb9ccb_a7a0_41c8_93cb_a0fd9a60e802_Class33 ( obj_afc25763_509a_4d96_b6f3_5672f254105d o )  ) ) ( type_35cb9ccb_a7a0_41c8_93cb_a0fd9a60e802_Class22 ( obj_afc25763_509a_4d96_b6f3_5672f254105d o )  ) ) ( type_35cb9ccb_a7a0_41c8_93cb_a0fd9a60e802_Class29 ( obj_afc25763_509a_4d96_b6f3_5672f254105d o )  ) ) ( type_35cb9ccb_a7a0_41c8_93cb_a0fd9a60e802_Class39 ( obj_afc25763_509a_4d96_b6f3_5672f254105d o )  ) ) ( type_35cb9ccb_a7a0_41c8_93cb_a0fd9a60e802_Class50 ( obj_afc25763_509a_4d96_b6f3_5672f254105d o )  ) ) ( type_35cb9ccb_a7a0_41c8_93cb_a0fd9a60e802_Class41 ( obj_afc25763_509a_4d96_b6f3_5672f254105d o )  ) )):named c6))
(assert (! (exists ((o Int)) ( type_35cb9ccb_a7a0_41c8_93cb_a0fd9a60e802_Class15 ( obj_afc25763_509a_4d96_b6f3_5672f254105d o )  ) ):named c7))
(assert (! (exists ((o Int)) (and (and (and (and (and ( type_35cb9ccb_a7a0_41c8_93cb_a0fd9a60e802_Class16 ( obj_afc25763_509a_4d96_b6f3_5672f254105d o )  )  ( type_35cb9ccb_a7a0_41c8_93cb_a0fd9a60e802_Class45 ( obj_afc25763_509a_4d96_b6f3_5672f254105d o )  ) ) ( type_35cb9ccb_a7a0_41c8_93cb_a0fd9a60e802_Class12 ( obj_afc25763_509a_4d96_b6f3_5672f254105d o )  ) ) ( type_35cb9ccb_a7a0_41c8_93cb_a0fd9a60e802_Class33 ( obj_afc25763_509a_4d96_b6f3_5672f254105d o )  ) ) ( type_35cb9ccb_a7a0_41c8_93cb_a0fd9a60e802_Class22 ( obj_afc25763_509a_4d96_b6f3_5672f254105d o )  ) ) ( type_35cb9ccb_a7a0_41c8_93cb_a0fd9a60e802_Class39 ( obj_afc25763_509a_4d96_b6f3_5672f254105d o )  ) )):named c8))
(assert (! (exists ((o Int)) ( type_35cb9ccb_a7a0_41c8_93cb_a0fd9a60e802_Class17 ( obj_afc25763_509a_4d96_b6f3_5672f254105d o )  ) ):named c9))
(assert (! (exists ((o Int)) (and (and (and ( type_35cb9ccb_a7a0_41c8_93cb_a0fd9a60e802_Class18 ( obj_afc25763_509a_4d96_b6f3_5672f254105d o )  )  ( type_35cb9ccb_a7a0_41c8_93cb_a0fd9a60e802_Class25 ( obj_afc25763_509a_4d96_b6f3_5672f254105d o )  ) ) ( type_35cb9ccb_a7a0_41c8_93cb_a0fd9a60e802_Class24 ( obj_afc25763_509a_4d96_b6f3_5672f254105d o )  ) ) ( type_35cb9ccb_a7a0_41c8_93cb_a0fd9a60e802_Class39 ( obj_afc25763_509a_4d96_b6f3_5672f254105d o )  ) )):named c10))
(assert (! (exists ((o Int)) (and (and (and (and (and (and (and (and (and ( type_35cb9ccb_a7a0_41c8_93cb_a0fd9a60e802_Class19 ( obj_afc25763_509a_4d96_b6f3_5672f254105d o )  )  ( type_35cb9ccb_a7a0_41c8_93cb_a0fd9a60e802_Class45 ( obj_afc25763_509a_4d96_b6f3_5672f254105d o )  ) ) ( type_35cb9ccb_a7a0_41c8_93cb_a0fd9a60e802_Class12 ( obj_afc25763_509a_4d96_b6f3_5672f254105d o )  ) ) ( type_35cb9ccb_a7a0_41c8_93cb_a0fd9a60e802_Class55 ( obj_afc25763_509a_4d96_b6f3_5672f254105d o )  ) ) ( type_35cb9ccb_a7a0_41c8_93cb_a0fd9a60e802_Class33 ( obj_afc25763_509a_4d96_b6f3_5672f254105d o )  ) ) ( type_35cb9ccb_a7a0_41c8_93cb_a0fd9a60e802_Class22 ( obj_afc25763_509a_4d96_b6f3_5672f254105d o )  ) ) ( type_35cb9ccb_a7a0_41c8_93cb_a0fd9a60e802_Class29 ( obj_afc25763_509a_4d96_b6f3_5672f254105d o )  ) ) ( type_35cb9ccb_a7a0_41c8_93cb_a0fd9a60e802_Class39 ( obj_afc25763_509a_4d96_b6f3_5672f254105d o )  ) ) ( type_35cb9ccb_a7a0_41c8_93cb_a0fd9a60e802_Class50 ( obj_afc25763_509a_4d96_b6f3_5672f254105d o )  ) ) ( type_35cb9ccb_a7a0_41c8_93cb_a0fd9a60e802_Class41 ( obj_afc25763_509a_4d96_b6f3_5672f254105d o )  ) )):named c11))
(assert (! (exists ((o Int)) ( type_35cb9ccb_a7a0_41c8_93cb_a0fd9a60e802_Class2 ( obj_afc25763_509a_4d96_b6f3_5672f254105d o )  ) ):named c12))
(assert (! (exists ((o Int)) ( type_35cb9ccb_a7a0_41c8_93cb_a0fd9a60e802_Class20 ( obj_afc25763_509a_4d96_b6f3_5672f254105d o )  ) ):named c13))
(assert (! (exists ((o Int)) (and (and (and (and (and (and (and (and (and ( type_35cb9ccb_a7a0_41c8_93cb_a0fd9a60e802_Class21 ( obj_afc25763_509a_4d96_b6f3_5672f254105d o )  )  ( type_35cb9ccb_a7a0_41c8_93cb_a0fd9a60e802_Class45 ( obj_afc25763_509a_4d96_b6f3_5672f254105d o )  ) ) ( type_35cb9ccb_a7a0_41c8_93cb_a0fd9a60e802_Class12 ( obj_afc25763_509a_4d96_b6f3_5672f254105d o )  ) ) ( type_35cb9ccb_a7a0_41c8_93cb_a0fd9a60e802_Class33 ( obj_afc25763_509a_4d96_b6f3_5672f254105d o )  ) ) ( type_35cb9ccb_a7a0_41c8_93cb_a0fd9a60e802_Class22 ( obj_afc25763_509a_4d96_b6f3_5672f254105d o )  ) ) ( type_35cb9ccb_a7a0_41c8_93cb_a0fd9a60e802_Class16 ( obj_afc25763_509a_4d96_b6f3_5672f254105d o )  ) ) ( type_35cb9ccb_a7a0_41c8_93cb_a0fd9a60e802_Class29 ( obj_afc25763_509a_4d96_b6f3_5672f254105d o )  ) ) ( type_35cb9ccb_a7a0_41c8_93cb_a0fd9a60e802_Class39 ( obj_afc25763_509a_4d96_b6f3_5672f254105d o )  ) ) ( type_35cb9ccb_a7a0_41c8_93cb_a0fd9a60e802_Class41 ( obj_afc25763_509a_4d96_b6f3_5672f254105d o )  ) ) ( type_35cb9ccb_a7a0_41c8_93cb_a0fd9a60e802_Class51 ( obj_afc25763_509a_4d96_b6f3_5672f254105d o )  ) )):named c14))
(assert (! (exists ((o Int)) (and ( type_35cb9ccb_a7a0_41c8_93cb_a0fd9a60e802_Class22 ( obj_afc25763_509a_4d96_b6f3_5672f254105d o )  )  ( type_35cb9ccb_a7a0_41c8_93cb_a0fd9a60e802_Class39 ( obj_afc25763_509a_4d96_b6f3_5672f254105d o )  ) )):named c15))
(assert (! (exists ((o Int)) (and (and (and (and ( type_35cb9ccb_a7a0_41c8_93cb_a0fd9a60e802_Class23 ( obj_afc25763_509a_4d96_b6f3_5672f254105d o )  )  ( type_35cb9ccb_a7a0_41c8_93cb_a0fd9a60e802_Class25 ( obj_afc25763_509a_4d96_b6f3_5672f254105d o )  ) ) ( type_35cb9ccb_a7a0_41c8_93cb_a0fd9a60e802_Class24 ( obj_afc25763_509a_4d96_b6f3_5672f254105d o )  ) ) ( type_35cb9ccb_a7a0_41c8_93cb_a0fd9a60e802_Class39 ( obj_afc25763_509a_4d96_b6f3_5672f254105d o )  ) ) ( type_35cb9ccb_a7a0_41c8_93cb_a0fd9a60e802_Class5 ( obj_afc25763_509a_4d96_b6f3_5672f254105d o )  ) )):named c16))
(assert (! (exists ((o Int)) (and (and ( type_35cb9ccb_a7a0_41c8_93cb_a0fd9a60e802_Class24 ( obj_afc25763_509a_4d96_b6f3_5672f254105d o )  )  ( type_35cb9ccb_a7a0_41c8_93cb_a0fd9a60e802_Class25 ( obj_afc25763_509a_4d96_b6f3_5672f254105d o )  ) ) ( type_35cb9ccb_a7a0_41c8_93cb_a0fd9a60e802_Class39 ( obj_afc25763_509a_4d96_b6f3_5672f254105d o )  ) )):named c17))
(assert (! (exists ((o Int)) (and ( type_35cb9ccb_a7a0_41c8_93cb_a0fd9a60e802_Class25 ( obj_afc25763_509a_4d96_b6f3_5672f254105d o )  )  ( type_35cb9ccb_a7a0_41c8_93cb_a0fd9a60e802_Class39 ( obj_afc25763_509a_4d96_b6f3_5672f254105d o )  ) )):named c18))
(assert (! (exists ((o Int)) ( type_35cb9ccb_a7a0_41c8_93cb_a0fd9a60e802_Class26 ( obj_afc25763_509a_4d96_b6f3_5672f254105d o )  ) ):named c19))
(assert (! (exists ((o Int)) ( type_35cb9ccb_a7a0_41c8_93cb_a0fd9a60e802_Class27 ( obj_afc25763_509a_4d96_b6f3_5672f254105d o )  ) ):named c20))
(assert (! (exists ((o Int)) (and (and (and (and (and (and (and ( type_35cb9ccb_a7a0_41c8_93cb_a0fd9a60e802_Class28 ( obj_afc25763_509a_4d96_b6f3_5672f254105d o )  )  ( type_35cb9ccb_a7a0_41c8_93cb_a0fd9a60e802_Class45 ( obj_afc25763_509a_4d96_b6f3_5672f254105d o )  ) ) ( type_35cb9ccb_a7a0_41c8_93cb_a0fd9a60e802_Class12 ( obj_afc25763_509a_4d96_b6f3_5672f254105d o )  ) ) ( type_35cb9ccb_a7a0_41c8_93cb_a0fd9a60e802_Class33 ( obj_afc25763_509a_4d96_b6f3_5672f254105d o )  ) ) ( type_35cb9ccb_a7a0_41c8_93cb_a0fd9a60e802_Class22 ( obj_afc25763_509a_4d96_b6f3_5672f254105d o )  ) ) ( type_35cb9ccb_a7a0_41c8_93cb_a0fd9a60e802_Class29 ( obj_afc25763_509a_4d96_b6f3_5672f254105d o )  ) ) ( type_35cb9ccb_a7a0_41c8_93cb_a0fd9a60e802_Class39 ( obj_afc25763_509a_4d96_b6f3_5672f254105d o )  ) ) ( type_35cb9ccb_a7a0_41c8_93cb_a0fd9a60e802_Class41 ( obj_afc25763_509a_4d96_b6f3_5672f254105d o )  ) )):named c21))
(assert (! (exists ((o Int)) (and (and (and (and (and (and ( type_35cb9ccb_a7a0_41c8_93cb_a0fd9a60e802_Class29 ( obj_afc25763_509a_4d96_b6f3_5672f254105d o )  )  ( type_35cb9ccb_a7a0_41c8_93cb_a0fd9a60e802_Class45 ( obj_afc25763_509a_4d96_b6f3_5672f254105d o )  ) ) ( type_35cb9ccb_a7a0_41c8_93cb_a0fd9a60e802_Class12 ( obj_afc25763_509a_4d96_b6f3_5672f254105d o )  ) ) ( type_35cb9ccb_a7a0_41c8_93cb_a0fd9a60e802_Class33 ( obj_afc25763_509a_4d96_b6f3_5672f254105d o )  ) ) ( type_35cb9ccb_a7a0_41c8_93cb_a0fd9a60e802_Class22 ( obj_afc25763_509a_4d96_b6f3_5672f254105d o )  ) ) ( type_35cb9ccb_a7a0_41c8_93cb_a0fd9a60e802_Class39 ( obj_afc25763_509a_4d96_b6f3_5672f254105d o )  ) ) ( type_35cb9ccb_a7a0_41c8_93cb_a0fd9a60e802_Class41 ( obj_afc25763_509a_4d96_b6f3_5672f254105d o )  ) )):named c22))
(assert (! (exists ((o Int)) (and (and (and ( type_35cb9ccb_a7a0_41c8_93cb_a0fd9a60e802_Class3 ( obj_afc25763_509a_4d96_b6f3_5672f254105d o )  )  ( type_35cb9ccb_a7a0_41c8_93cb_a0fd9a60e802_Class25 ( obj_afc25763_509a_4d96_b6f3_5672f254105d o )  ) ) ( type_35cb9ccb_a7a0_41c8_93cb_a0fd9a60e802_Class24 ( obj_afc25763_509a_4d96_b6f3_5672f254105d o )  ) ) ( type_35cb9ccb_a7a0_41c8_93cb_a0fd9a60e802_Class39 ( obj_afc25763_509a_4d96_b6f3_5672f254105d o )  ) )):named c23))
(assert (! (exists ((o Int)) (and ( type_35cb9ccb_a7a0_41c8_93cb_a0fd9a60e802_Class30 ( obj_afc25763_509a_4d96_b6f3_5672f254105d o )  )  ( type_35cb9ccb_a7a0_41c8_93cb_a0fd9a60e802_Class39 ( obj_afc25763_509a_4d96_b6f3_5672f254105d o )  ) )):named c24))
(assert (! (exists ((o Int)) (and (and (and (and (and ( type_35cb9ccb_a7a0_41c8_93cb_a0fd9a60e802_Class31 ( obj_afc25763_509a_4d96_b6f3_5672f254105d o )  )  ( type_35cb9ccb_a7a0_41c8_93cb_a0fd9a60e802_Class45 ( obj_afc25763_509a_4d96_b6f3_5672f254105d o )  ) ) ( type_35cb9ccb_a7a0_41c8_93cb_a0fd9a60e802_Class12 ( obj_afc25763_509a_4d96_b6f3_5672f254105d o )  ) ) ( type_35cb9ccb_a7a0_41c8_93cb_a0fd9a60e802_Class33 ( obj_afc25763_509a_4d96_b6f3_5672f254105d o )  ) ) ( type_35cb9ccb_a7a0_41c8_93cb_a0fd9a60e802_Class22 ( obj_afc25763_509a_4d96_b6f3_5672f254105d o )  ) ) ( type_35cb9ccb_a7a0_41c8_93cb_a0fd9a60e802_Class39 ( obj_afc25763_509a_4d96_b6f3_5672f254105d o )  ) )):named c25))
(assert (! (exists ((o Int)) ( type_35cb9ccb_a7a0_41c8_93cb_a0fd9a60e802_Class32 ( obj_afc25763_509a_4d96_b6f3_5672f254105d o )  ) ):named c26))
(assert (! (exists ((o Int)) (and (and ( type_35cb9ccb_a7a0_41c8_93cb_a0fd9a60e802_Class33 ( obj_afc25763_509a_4d96_b6f3_5672f254105d o )  )  ( type_35cb9ccb_a7a0_41c8_93cb_a0fd9a60e802_Class22 ( obj_afc25763_509a_4d96_b6f3_5672f254105d o )  ) ) ( type_35cb9ccb_a7a0_41c8_93cb_a0fd9a60e802_Class39 ( obj_afc25763_509a_4d96_b6f3_5672f254105d o )  ) )):named c27))
(assert (! (exists ((o Int)) (and (and (and ( type_35cb9ccb_a7a0_41c8_93cb_a0fd9a60e802_Class34 ( obj_afc25763_509a_4d96_b6f3_5672f254105d o )  )  ( type_35cb9ccb_a7a0_41c8_93cb_a0fd9a60e802_Class25 ( obj_afc25763_509a_4d96_b6f3_5672f254105d o )  ) ) ( type_35cb9ccb_a7a0_41c8_93cb_a0fd9a60e802_Class24 ( obj_afc25763_509a_4d96_b6f3_5672f254105d o )  ) ) ( type_35cb9ccb_a7a0_41c8_93cb_a0fd9a60e802_Class39 ( obj_afc25763_509a_4d96_b6f3_5672f254105d o )  ) )):named c28))
(assert (! (exists ((o Int)) (and (and ( type_35cb9ccb_a7a0_41c8_93cb_a0fd9a60e802_Class35 ( obj_afc25763_509a_4d96_b6f3_5672f254105d o )  )  ( type_35cb9ccb_a7a0_41c8_93cb_a0fd9a60e802_Class39 ( obj_afc25763_509a_4d96_b6f3_5672f254105d o )  ) ) ( type_35cb9ccb_a7a0_41c8_93cb_a0fd9a60e802_Class30 ( obj_afc25763_509a_4d96_b6f3_5672f254105d o )  ) )):named c29))
(assert (! (exists ((o Int)) ( type_35cb9ccb_a7a0_41c8_93cb_a0fd9a60e802_Class36 ( obj_afc25763_509a_4d96_b6f3_5672f254105d o )  ) ):named c30))
(assert (! (exists ((o Int)) ( type_35cb9ccb_a7a0_41c8_93cb_a0fd9a60e802_Class37 ( obj_afc25763_509a_4d96_b6f3_5672f254105d o )  ) ):named c31))
(assert (! (exists ((o Int)) ( type_35cb9ccb_a7a0_41c8_93cb_a0fd9a60e802_Class38 ( obj_afc25763_509a_4d96_b6f3_5672f254105d o )  ) ):named c32))
(assert (! (exists ((o Int)) ( type_35cb9ccb_a7a0_41c8_93cb_a0fd9a60e802_Class39 ( obj_afc25763_509a_4d96_b6f3_5672f254105d o )  ) ):named c33))
(assert (! (exists ((o Int)) ( type_35cb9ccb_a7a0_41c8_93cb_a0fd9a60e802_Class4 ( obj_afc25763_509a_4d96_b6f3_5672f254105d o )  ) ):named c34))
(assert (! (exists ((o Int)) (and (and (and (and (and (and (and (and (and ( type_35cb9ccb_a7a0_41c8_93cb_a0fd9a60e802_Class40 ( obj_afc25763_509a_4d96_b6f3_5672f254105d o )  )  ( type_35cb9ccb_a7a0_41c8_93cb_a0fd9a60e802_Class45 ( obj_afc25763_509a_4d96_b6f3_5672f254105d o )  ) ) ( type_35cb9ccb_a7a0_41c8_93cb_a0fd9a60e802_Class12 ( obj_afc25763_509a_4d96_b6f3_5672f254105d o )  ) ) ( type_35cb9ccb_a7a0_41c8_93cb_a0fd9a60e802_Class55 ( obj_afc25763_509a_4d96_b6f3_5672f254105d o )  ) ) ( type_35cb9ccb_a7a0_41c8_93cb_a0fd9a60e802_Class33 ( obj_afc25763_509a_4d96_b6f3_5672f254105d o )  ) ) ( type_35cb9ccb_a7a0_41c8_93cb_a0fd9a60e802_Class22 ( obj_afc25763_509a_4d96_b6f3_5672f254105d o )  ) ) ( type_35cb9ccb_a7a0_41c8_93cb_a0fd9a60e802_Class29 ( obj_afc25763_509a_4d96_b6f3_5672f254105d o )  ) ) ( type_35cb9ccb_a7a0_41c8_93cb_a0fd9a60e802_Class39 ( obj_afc25763_509a_4d96_b6f3_5672f254105d o )  ) ) ( type_35cb9ccb_a7a0_41c8_93cb_a0fd9a60e802_Class50 ( obj_afc25763_509a_4d96_b6f3_5672f254105d o )  ) ) ( type_35cb9ccb_a7a0_41c8_93cb_a0fd9a60e802_Class41 ( obj_afc25763_509a_4d96_b6f3_5672f254105d o )  ) )):named c35))
(assert (! (exists ((o Int)) (and (and (and (and (and ( type_35cb9ccb_a7a0_41c8_93cb_a0fd9a60e802_Class41 ( obj_afc25763_509a_4d96_b6f3_5672f254105d o )  )  ( type_35cb9ccb_a7a0_41c8_93cb_a0fd9a60e802_Class45 ( obj_afc25763_509a_4d96_b6f3_5672f254105d o )  ) ) ( type_35cb9ccb_a7a0_41c8_93cb_a0fd9a60e802_Class12 ( obj_afc25763_509a_4d96_b6f3_5672f254105d o )  ) ) ( type_35cb9ccb_a7a0_41c8_93cb_a0fd9a60e802_Class33 ( obj_afc25763_509a_4d96_b6f3_5672f254105d o )  ) ) ( type_35cb9ccb_a7a0_41c8_93cb_a0fd9a60e802_Class22 ( obj_afc25763_509a_4d96_b6f3_5672f254105d o )  ) ) ( type_35cb9ccb_a7a0_41c8_93cb_a0fd9a60e802_Class39 ( obj_afc25763_509a_4d96_b6f3_5672f254105d o )  ) )):named c36))
(assert (! (exists ((o Int)) (and ( type_35cb9ccb_a7a0_41c8_93cb_a0fd9a60e802_Class42 ( obj_afc25763_509a_4d96_b6f3_5672f254105d o )  )  ( type_35cb9ccb_a7a0_41c8_93cb_a0fd9a60e802_Class39 ( obj_afc25763_509a_4d96_b6f3_5672f254105d o )  ) )):named c37))
(assert (! (exists ((o Int)) ( type_35cb9ccb_a7a0_41c8_93cb_a0fd9a60e802_Class43 ( obj_afc25763_509a_4d96_b6f3_5672f254105d o )  ) ):named c38))
(assert (! (exists ((o Int)) (and (and (and (and (and (and (and ( type_35cb9ccb_a7a0_41c8_93cb_a0fd9a60e802_Class44 ( obj_afc25763_509a_4d96_b6f3_5672f254105d o )  )  ( type_35cb9ccb_a7a0_41c8_93cb_a0fd9a60e802_Class45 ( obj_afc25763_509a_4d96_b6f3_5672f254105d o )  ) ) ( type_35cb9ccb_a7a0_41c8_93cb_a0fd9a60e802_Class12 ( obj_afc25763_509a_4d96_b6f3_5672f254105d o )  ) ) ( type_35cb9ccb_a7a0_41c8_93cb_a0fd9a60e802_Class33 ( obj_afc25763_509a_4d96_b6f3_5672f254105d o )  ) ) ( type_35cb9ccb_a7a0_41c8_93cb_a0fd9a60e802_Class22 ( obj_afc25763_509a_4d96_b6f3_5672f254105d o )  ) ) ( type_35cb9ccb_a7a0_41c8_93cb_a0fd9a60e802_Class29 ( obj_afc25763_509a_4d96_b6f3_5672f254105d o )  ) ) ( type_35cb9ccb_a7a0_41c8_93cb_a0fd9a60e802_Class39 ( obj_afc25763_509a_4d96_b6f3_5672f254105d o )  ) ) ( type_35cb9ccb_a7a0_41c8_93cb_a0fd9a60e802_Class41 ( obj_afc25763_509a_4d96_b6f3_5672f254105d o )  ) )):named c39))
(assert (! (exists ((o Int)) (and (and (and (and ( type_35cb9ccb_a7a0_41c8_93cb_a0fd9a60e802_Class45 ( obj_afc25763_509a_4d96_b6f3_5672f254105d o )  )  ( type_35cb9ccb_a7a0_41c8_93cb_a0fd9a60e802_Class12 ( obj_afc25763_509a_4d96_b6f3_5672f254105d o )  ) ) ( type_35cb9ccb_a7a0_41c8_93cb_a0fd9a60e802_Class33 ( obj_afc25763_509a_4d96_b6f3_5672f254105d o )  ) ) ( type_35cb9ccb_a7a0_41c8_93cb_a0fd9a60e802_Class22 ( obj_afc25763_509a_4d96_b6f3_5672f254105d o )  ) ) ( type_35cb9ccb_a7a0_41c8_93cb_a0fd9a60e802_Class39 ( obj_afc25763_509a_4d96_b6f3_5672f254105d o )  ) )):named c40))
(assert (! (exists ((o Int)) (and (and ( type_35cb9ccb_a7a0_41c8_93cb_a0fd9a60e802_Class46 ( obj_afc25763_509a_4d96_b6f3_5672f254105d o )  )  ( type_35cb9ccb_a7a0_41c8_93cb_a0fd9a60e802_Class39 ( obj_afc25763_509a_4d96_b6f3_5672f254105d o )  ) ) ( type_35cb9ccb_a7a0_41c8_93cb_a0fd9a60e802_Class5 ( obj_afc25763_509a_4d96_b6f3_5672f254105d o )  ) )):named c41))
(assert (! (exists ((o Int)) ( type_35cb9ccb_a7a0_41c8_93cb_a0fd9a60e802_Class47 ( obj_afc25763_509a_4d96_b6f3_5672f254105d o )  ) ):named c42))
(assert (! (exists ((o Int)) (and (and (and (and (and (and (and (and (and ( type_35cb9ccb_a7a0_41c8_93cb_a0fd9a60e802_Class48 ( obj_afc25763_509a_4d96_b6f3_5672f254105d o )  )  ( type_35cb9ccb_a7a0_41c8_93cb_a0fd9a60e802_Class45 ( obj_afc25763_509a_4d96_b6f3_5672f254105d o )  ) ) ( type_35cb9ccb_a7a0_41c8_93cb_a0fd9a60e802_Class12 ( obj_afc25763_509a_4d96_b6f3_5672f254105d o )  ) ) ( type_35cb9ccb_a7a0_41c8_93cb_a0fd9a60e802_Class55 ( obj_afc25763_509a_4d96_b6f3_5672f254105d o )  ) ) ( type_35cb9ccb_a7a0_41c8_93cb_a0fd9a60e802_Class33 ( obj_afc25763_509a_4d96_b6f3_5672f254105d o )  ) ) ( type_35cb9ccb_a7a0_41c8_93cb_a0fd9a60e802_Class22 ( obj_afc25763_509a_4d96_b6f3_5672f254105d o )  ) ) ( type_35cb9ccb_a7a0_41c8_93cb_a0fd9a60e802_Class29 ( obj_afc25763_509a_4d96_b6f3_5672f254105d o )  ) ) ( type_35cb9ccb_a7a0_41c8_93cb_a0fd9a60e802_Class39 ( obj_afc25763_509a_4d96_b6f3_5672f254105d o )  ) ) ( type_35cb9ccb_a7a0_41c8_93cb_a0fd9a60e802_Class50 ( obj_afc25763_509a_4d96_b6f3_5672f254105d o )  ) ) ( type_35cb9ccb_a7a0_41c8_93cb_a0fd9a60e802_Class41 ( obj_afc25763_509a_4d96_b6f3_5672f254105d o )  ) )):named c43))
(assert (! (exists ((o Int)) (and (and (and (and (and (and (and (and (and ( type_35cb9ccb_a7a0_41c8_93cb_a0fd9a60e802_Class49 ( obj_afc25763_509a_4d96_b6f3_5672f254105d o )  )  ( type_35cb9ccb_a7a0_41c8_93cb_a0fd9a60e802_Class45 ( obj_afc25763_509a_4d96_b6f3_5672f254105d o )  ) ) ( type_35cb9ccb_a7a0_41c8_93cb_a0fd9a60e802_Class12 ( obj_afc25763_509a_4d96_b6f3_5672f254105d o )  ) ) ( type_35cb9ccb_a7a0_41c8_93cb_a0fd9a60e802_Class55 ( obj_afc25763_509a_4d96_b6f3_5672f254105d o )  ) ) ( type_35cb9ccb_a7a0_41c8_93cb_a0fd9a60e802_Class33 ( obj_afc25763_509a_4d96_b6f3_5672f254105d o )  ) ) ( type_35cb9ccb_a7a0_41c8_93cb_a0fd9a60e802_Class22 ( obj_afc25763_509a_4d96_b6f3_5672f254105d o )  ) ) ( type_35cb9ccb_a7a0_41c8_93cb_a0fd9a60e802_Class29 ( obj_afc25763_509a_4d96_b6f3_5672f254105d o )  ) ) ( type_35cb9ccb_a7a0_41c8_93cb_a0fd9a60e802_Class39 ( obj_afc25763_509a_4d96_b6f3_5672f254105d o )  ) ) ( type_35cb9ccb_a7a0_41c8_93cb_a0fd9a60e802_Class50 ( obj_afc25763_509a_4d96_b6f3_5672f254105d o )  ) ) ( type_35cb9ccb_a7a0_41c8_93cb_a0fd9a60e802_Class41 ( obj_afc25763_509a_4d96_b6f3_5672f254105d o )  ) )):named c44))
(assert (! (exists ((o Int)) (and ( type_35cb9ccb_a7a0_41c8_93cb_a0fd9a60e802_Class5 ( obj_afc25763_509a_4d96_b6f3_5672f254105d o )  )  ( type_35cb9ccb_a7a0_41c8_93cb_a0fd9a60e802_Class39 ( obj_afc25763_509a_4d96_b6f3_5672f254105d o )  ) )):named c45))
(assert (! (exists ((o Int)) (and (and (and (and (and (and (and (and ( type_35cb9ccb_a7a0_41c8_93cb_a0fd9a60e802_Class50 ( obj_afc25763_509a_4d96_b6f3_5672f254105d o )  )  ( type_35cb9ccb_a7a0_41c8_93cb_a0fd9a60e802_Class45 ( obj_afc25763_509a_4d96_b6f3_5672f254105d o )  ) ) ( type_35cb9ccb_a7a0_41c8_93cb_a0fd9a60e802_Class12 ( obj_afc25763_509a_4d96_b6f3_5672f254105d o )  ) ) ( type_35cb9ccb_a7a0_41c8_93cb_a0fd9a60e802_Class55 ( obj_afc25763_509a_4d96_b6f3_5672f254105d o )  ) ) ( type_35cb9ccb_a7a0_41c8_93cb_a0fd9a60e802_Class33 ( obj_afc25763_509a_4d96_b6f3_5672f254105d o )  ) ) ( type_35cb9ccb_a7a0_41c8_93cb_a0fd9a60e802_Class22 ( obj_afc25763_509a_4d96_b6f3_5672f254105d o )  ) ) ( type_35cb9ccb_a7a0_41c8_93cb_a0fd9a60e802_Class29 ( obj_afc25763_509a_4d96_b6f3_5672f254105d o )  ) ) ( type_35cb9ccb_a7a0_41c8_93cb_a0fd9a60e802_Class39 ( obj_afc25763_509a_4d96_b6f3_5672f254105d o )  ) ) ( type_35cb9ccb_a7a0_41c8_93cb_a0fd9a60e802_Class41 ( obj_afc25763_509a_4d96_b6f3_5672f254105d o )  ) )):named c46))
(assert (! (exists ((o Int)) (and (and (and (and (and (and ( type_35cb9ccb_a7a0_41c8_93cb_a0fd9a60e802_Class51 ( obj_afc25763_509a_4d96_b6f3_5672f254105d o )  )  ( type_35cb9ccb_a7a0_41c8_93cb_a0fd9a60e802_Class45 ( obj_afc25763_509a_4d96_b6f3_5672f254105d o )  ) ) ( type_35cb9ccb_a7a0_41c8_93cb_a0fd9a60e802_Class12 ( obj_afc25763_509a_4d96_b6f3_5672f254105d o )  ) ) ( type_35cb9ccb_a7a0_41c8_93cb_a0fd9a60e802_Class33 ( obj_afc25763_509a_4d96_b6f3_5672f254105d o )  ) ) ( type_35cb9ccb_a7a0_41c8_93cb_a0fd9a60e802_Class22 ( obj_afc25763_509a_4d96_b6f3_5672f254105d o )  ) ) ( type_35cb9ccb_a7a0_41c8_93cb_a0fd9a60e802_Class16 ( obj_afc25763_509a_4d96_b6f3_5672f254105d o )  ) ) ( type_35cb9ccb_a7a0_41c8_93cb_a0fd9a60e802_Class39 ( obj_afc25763_509a_4d96_b6f3_5672f254105d o )  ) )):named c47))
(assert (! (exists ((o Int)) (and (and (and (and (and ( type_35cb9ccb_a7a0_41c8_93cb_a0fd9a60e802_Class52 ( obj_afc25763_509a_4d96_b6f3_5672f254105d o )  )  ( type_35cb9ccb_a7a0_41c8_93cb_a0fd9a60e802_Class45 ( obj_afc25763_509a_4d96_b6f3_5672f254105d o )  ) ) ( type_35cb9ccb_a7a0_41c8_93cb_a0fd9a60e802_Class12 ( obj_afc25763_509a_4d96_b6f3_5672f254105d o )  ) ) ( type_35cb9ccb_a7a0_41c8_93cb_a0fd9a60e802_Class33 ( obj_afc25763_509a_4d96_b6f3_5672f254105d o )  ) ) ( type_35cb9ccb_a7a0_41c8_93cb_a0fd9a60e802_Class22 ( obj_afc25763_509a_4d96_b6f3_5672f254105d o )  ) ) ( type_35cb9ccb_a7a0_41c8_93cb_a0fd9a60e802_Class39 ( obj_afc25763_509a_4d96_b6f3_5672f254105d o )  ) )):named c48))
(assert (! (exists ((o Int)) ( type_35cb9ccb_a7a0_41c8_93cb_a0fd9a60e802_Class53 ( obj_afc25763_509a_4d96_b6f3_5672f254105d o )  ) ):named c49))
(assert (! (exists ((o Int)) ( type_35cb9ccb_a7a0_41c8_93cb_a0fd9a60e802_Class54 ( obj_afc25763_509a_4d96_b6f3_5672f254105d o )  ) ):named c50))
(assert (! (exists ((o Int)) (and (and (and (and (and (and (and ( type_35cb9ccb_a7a0_41c8_93cb_a0fd9a60e802_Class55 ( obj_afc25763_509a_4d96_b6f3_5672f254105d o )  )  ( type_35cb9ccb_a7a0_41c8_93cb_a0fd9a60e802_Class45 ( obj_afc25763_509a_4d96_b6f3_5672f254105d o )  ) ) ( type_35cb9ccb_a7a0_41c8_93cb_a0fd9a60e802_Class12 ( obj_afc25763_509a_4d96_b6f3_5672f254105d o )  ) ) ( type_35cb9ccb_a7a0_41c8_93cb_a0fd9a60e802_Class33 ( obj_afc25763_509a_4d96_b6f3_5672f254105d o )  ) ) ( type_35cb9ccb_a7a0_41c8_93cb_a0fd9a60e802_Class22 ( obj_afc25763_509a_4d96_b6f3_5672f254105d o )  ) ) ( type_35cb9ccb_a7a0_41c8_93cb_a0fd9a60e802_Class29 ( obj_afc25763_509a_4d96_b6f3_5672f254105d o )  ) ) ( type_35cb9ccb_a7a0_41c8_93cb_a0fd9a60e802_Class39 ( obj_afc25763_509a_4d96_b6f3_5672f254105d o )  ) ) ( type_35cb9ccb_a7a0_41c8_93cb_a0fd9a60e802_Class41 ( obj_afc25763_509a_4d96_b6f3_5672f254105d o )  ) )):named c51))
(assert (! (exists ((o Int)) ( type_35cb9ccb_a7a0_41c8_93cb_a0fd9a60e802_Class6 ( obj_afc25763_509a_4d96_b6f3_5672f254105d o )  ) ):named c52))
(assert (! (exists ((o Int)) (and (and (and (and (and (and (and (and (and ( type_35cb9ccb_a7a0_41c8_93cb_a0fd9a60e802_Class7 ( obj_afc25763_509a_4d96_b6f3_5672f254105d o )  )  ( type_35cb9ccb_a7a0_41c8_93cb_a0fd9a60e802_Class45 ( obj_afc25763_509a_4d96_b6f3_5672f254105d o )  ) ) ( type_35cb9ccb_a7a0_41c8_93cb_a0fd9a60e802_Class12 ( obj_afc25763_509a_4d96_b6f3_5672f254105d o )  ) ) ( type_35cb9ccb_a7a0_41c8_93cb_a0fd9a60e802_Class55 ( obj_afc25763_509a_4d96_b6f3_5672f254105d o )  ) ) ( type_35cb9ccb_a7a0_41c8_93cb_a0fd9a60e802_Class33 ( obj_afc25763_509a_4d96_b6f3_5672f254105d o )  ) ) ( type_35cb9ccb_a7a0_41c8_93cb_a0fd9a60e802_Class22 ( obj_afc25763_509a_4d96_b6f3_5672f254105d o )  ) ) ( type_35cb9ccb_a7a0_41c8_93cb_a0fd9a60e802_Class29 ( obj_afc25763_509a_4d96_b6f3_5672f254105d o )  ) ) ( type_35cb9ccb_a7a0_41c8_93cb_a0fd9a60e802_Class39 ( obj_afc25763_509a_4d96_b6f3_5672f254105d o )  ) ) ( type_35cb9ccb_a7a0_41c8_93cb_a0fd9a60e802_Class50 ( obj_afc25763_509a_4d96_b6f3_5672f254105d o )  ) ) ( type_35cb9ccb_a7a0_41c8_93cb_a0fd9a60e802_Class41 ( obj_afc25763_509a_4d96_b6f3_5672f254105d o )  ) )):named c53))
(assert (! (exists ((o Int)) (and ( type_35cb9ccb_a7a0_41c8_93cb_a0fd9a60e802_Class8 ( obj_afc25763_509a_4d96_b6f3_5672f254105d o )  )  ( type_35cb9ccb_a7a0_41c8_93cb_a0fd9a60e802_Class39 ( obj_afc25763_509a_4d96_b6f3_5672f254105d o )  ) )):named c54))
(assert (! (exists ((o Int)) ( type_35cb9ccb_a7a0_41c8_93cb_a0fd9a60e802_Class9 ( obj_afc25763_509a_4d96_b6f3_5672f254105d o )  ) ):named c55))

 ;end of formula 